0 2455
1 2253
2 2027
3 2027
4 1931
5 1924
6 1812
7 1700
8 1700
9 1694
10 1618
11 1617
12 1582
13 1568
14 1509
15 1509
16 1509
17 1456
18 1437
19 1419
20 1419
21 1412
22 1404
23 1404
24 1383
25 1348
26 1348
27 1284
28 1284
29 1255
30 1252
31 1242
32 1242
33 1241
34 1233
35 1233
36 1231
37 1224
38 1218
39 1217
40 1207
41 1207
42 1207
43 1191
44 1191
45 1191
46 1191
47 1191
48 1191
49 1191
50 1174
51 1174
52 1174
53 1174
54 1174
55 1156
56 1144
57 1144
58 1124
59 1124
60 1124
61 1124
62 1124
63 1124
64 1124
65 1124
66 1121
67 1121
68 1121
69 1121
70 1121
71 1121
72 1121
73 1121
74 1121
75 1105
76 1105
77 1105
78 1105
79 1105
80 1105
81 1105
82 1105
83 1105
84 1105
85 1105
86 1105
87 1104
88 1104
89 1104
90 1104
91 1104
92 1104
93 1104
94 1104
95 1083
96 1083
97 1083
98 1083
99 1082
100 1082
101 1082
102 1082
103 1082
104 1082
105 1082
106 1082
107 1051
108 1051
109 1051
110 1051
111 1051
112 1051
113 1051
114 1051
115 1051
116 1051
117 1051
118 1051
119 1037
120 1037
121 1037
122 1037
123 1037
124 1037
125 1037
126 1033
127 1033
128 1033
129 1021
130 1021
131 1021
132 1021
133 1021
134 1021
135 1021
136 1021
137 1021
138 1021
139 1021
140 1021
141 1021
142 1021
143 1021
144 1021
145 1021
146 1021
147 1021
148 1021
149 1021
150 1021
151 1021
152 1021
153 1021
154 1021
155 1002
156 1002
157 1002
158 1002
159 1002
160 996
161 996
162 996
163 996
164 995
165 995
166 995
167 995
168 995
169 995
170 995
171 995
172 995
173 995
174 995
175 995
176 995
177 995
178 995
179 995
180 995
181 995
182 995
183 995
184 995
185 995
186 995
187 995
188 995
189 995
190 995
191 995
192 995
193 995
194 995
195 995
196 995
197 995
198 995
199 995
200 995
201 995
202 995
203 995
204 995
205 995
206 995
207 995
208 995
209 995
210 995
211 995
212 995
213 995
214 995
215 995
216 995
217 995
218 995
219 995
220 995
221 995
222 995
223 995
224 995
225 995
226 995
227 995
228 995
229 995
230 995
231 964
232 964
233 964
234 964
235 964
236 964
237 964
238 964
239 964
240 964
241 964
242 964
243 964
244 964
245 964
246 964
247 964
248 964
249 964
250 964
251 946
252 946
253 946
254 946
255 946
256 946
257 946
258 946
259 946
260 946
261 946
262 946
263 946
264 946
265 946
266 946
267 946
268 946
269 946
270 944
271 944
272 944
273 944
274 944
275 944
276 944
277 944
278 944
279 944
280 944
281 944
282 944
283 935
284 935
285 935
286 935
287 935
288 933
289 933
290 933
291 933
292 933
293 933
294 927
295 927
296 927
297 927
298 927
299 927
300 927
301 927
302 924
303 924
304 924
305 924
306 924
307 924
308 924
309 924
310 924
311 924
312 924
313 924
314 924
315 924
316 924
317 924
318 924
319 924
320 924
321 924
322 924
323 924
324 844
325 844
326 844
327 844
328 844
329 842
330 842
331 842
332 842
333 842
334 842
335 842
336 842
337 842
338 842
339 842
340 842
341 842
342 842
343 842
344 842
345 842
346 842
347 842
348 842
349 842
350 842
351 842
352 842
353 842
354 842
355 842
356 842
357 842
358 842
359 842
360 842
361 842
362 842
363 842
364 842
365 842
366 842
367 842
368 842
369 842
370 842
371 842
372 842
373 842
374 840
375 840
376 840
377 840
378 840
379 840
380 840
381 840
382 836
383 836
384 836
385 836
386 836
387 836
388 836
389 836
390 836
391 836
392 836
393 836
394 836
395 836
396 836
397 836
398 836
399 836
400 836
401 836
402 836
403 836
404 836
405 836
406 836
407 836
408 836
409 836
410 836
411 836
412 836
413 836
414 836
415 836
416 836
417 836
418 836
419 836
420 836
421 836
422 836
423 836
424 836
425 836
426 836
427 836
428 836
429 836
430 836
431 836
432 836
433 836
434 836
435 836
436 836
437 836
438 836
439 836
440 836
441 836
442 836
443 836
444 836
445 836
446 836
447 836
448 836
449 836
450 836
451 836
452 836
453 836
454 836
455 836
456 836
457 836
458 836
459 836
460 836
461 836
462 836
463 836
464 836
465 836
466 836
467 836
468 836
469 836
470 836
471 836
472 836
473 836
474 836
475 836
476 836
477 836
478 836
479 836
480 836
481 836
482 836
483 836
484 836
485 836
486 836
487 836
488 836
489 836
490 836
491 836
492 836
493 836
494 836
495 836
496 836
497 836
498 836
499 836
500 836
501 836
502 836
503 836
504 836
505 836
506 836
507 836
508 836
509 836
510 836
511 836
512 836
513 836
514 836
515 836
516 836
517 836
518 836
519 836
520 836
521 836
522 836
523 836
524 836
525 836
526 836
527 836
528 836
529 836
530 836
531 836
532 836
533 836
534 836
535 836
536 836
537 836
538 836
539 836
540 836
541 836
542 836
543 836
544 836
545 836
546 836
547 836
548 836
549 836
550 836
551 836
552 836
553 836
554 836
555 836
556 836
557 836
558 836
559 836
560 836
561 836
562 836
563 836
564 836
565 836
566 836
567 836
568 836
569 836
570 836
571 836
572 836
573 836
574 836
575 836
576 836
577 836
578 836
579 836
580 836
581 836
582 836
583 836
584 836
585 836
586 836
587 836
588 836
589 836
590 836
591 836
592 836
593 836
594 836
595 836
596 836
597 836
598 836
599 836
600 836
601 836
602 836
603 836
604 836
605 836
606 836
607 836
608 836
609 836
610 836
611 836
612 836
613 836
614 836
615 836
616 836
617 836
618 836
619 836
620 836
621 836
622 836
623 836
624 836
625 836
626 836
627 836
628 836
629 836
630 836
631 836
632 836
633 836
634 836
635 836
636 836
637 836
638 836
639 836
640 836
641 836
642 836
643 836
644 836
645 836
646 836
647 836
648 836
649 836
650 836
651 836
652 836
653 836
654 836
655 836
656 836
657 836
658 836
659 836
660 836
661 836
662 836
663 836
664 836
665 836
666 836
667 836
668 836
669 836
670 836
671 836
672 836
673 836
674 836
675 836
676 836
677 836
678 836
679 836
680 836
681 836
682 836
683 836
684 836
685 836
686 836
687 836
688 836
689 836
690 836
691 836
692 836
693 836
694 836
695 836
696 836
697 836
698 836
699 836
700 836
701 836
702 836
703 836
704 836
705 836
706 836
707 836
708 836
709 836
710 836
711 836
712 836
713 836
714 836
715 836
716 836
717 836
718 836
719 836
720 836
721 836
722 836
723 836
724 836
725 836
726 836
727 836
728 836
729 836
730 836
731 836
732 836
733 836
734 836
735 836
736 836
737 836
738 836
739 836
740 836
741 836
742 836
743 836
744 836
745 836
746 836
747 836
748 836
749 836
750 836
751 836
752 836
753 836
754 836
755 836
756 836
757 836
758 836
759 836
760 836
761 836
762 836
763 836
764 836
765 836
766 836
767 836
768 836
769 836
770 836
771 836
772 836
773 836
774 836
775 836
776 836
777 836
778 836
779 836
780 836
781 836
782 836
783 836
784 836
785 836
786 836
787 836
788 836
789 836
790 836
791 836
792 836
793 836
794 836
795 836
796 836
797 836
798 836
799 836
800 836
801 836
802 836
803 836
804 836
805 836
806 836
807 836
808 836
809 836
810 836
811 836
812 836
813 836
814 836
815 836
816 836
817 836
818 836
819 836
820 836
821 836
822 836
823 836
824 836
825 836
826 836
827 836
828 836
829 836
830 836
831 836
832 836
833 836
834 836
835 836
836 836
837 836
838 836
839 836
840 836
841 836
842 836
843 836
844 836
845 836
846 836
847 836
848 836
849 836
850 836
851 836
852 836
853 836
854 836
855 836
856 836
857 836
858 836
859 836
860 836
861 836
862 836
863 836
864 836
865 836
866 836
867 836
868 836
869 836
870 836
871 836
872 836
873 836
874 836
875 836
876 836
877 836
878 836
879 836
880 836
881 836
882 836
883 836
884 836
885 836
886 836
887 836
888 836
889 836
890 836
891 836
892 836
893 836
894 836
895 836
896 836
897 836
898 836
899 836
900 836
901 836
902 836
903 836
904 836
905 836
906 836
907 836
908 836
909 836
910 836
911 836
912 836
913 836
914 836
915 836
916 836
917 836
918 836
919 836
920 836
921 836
922 836
923 836
924 836
925 836
926 836
927 836
928 836
929 836
930 836
931 836
932 836
933 836
934 836
935 836
936 836
937 836
938 836
939 836
940 836
941 836
942 836
943 836
944 836
945 836
946 836
947 836
948 836
949 836
950 836
951 836
952 836
953 836
954 836
955 836
956 836
957 836
958 836
959 836
960 836
961 836
962 836
963 836
964 836
965 836
966 836
967 836
968 836
969 836
970 836
971 836
972 836
973 836
974 836
975 836
976 836
977 836
978 836
979 836
980 836
981 836
982 836
983 836
984 836
985 836
986 836
987 836
988 836
989 836
990 836
991 836
992 836
993 836
994 836
995 836
996 836
997 836
998 836
999 836
Best: [[31,17,2,13],
       [21,30,16,23,12,5,29,7],
       [15,4,3,24,9,19,10,11,26,6],
       [28,25],
       [27,8,22,32,20,18,14]], fitness: 836
